c instance by G2
c solution = 01110100010
c Known solution cost is 596 
p cnf 11 30
w 91 80 55 83 31 41 48 13 42 89 23
-11 -3 9 0
6 7 -10 0
-5 11 -3 0
7 11 -1 0
-2 -7 -9 0
-8 9 7 0
-8 -3 -4 0
-2 -8 -3 0
4 -6 -3 0
-7 2 5 0
-11 -4 5 0
8 -6 10 0
-6 -2 3 0
1 -6 -5 0
6 2 11 0
8 11 10 0
8 4 -2 0
-11 -5 7 0
-9 -3 11 0
-10 -5 7 0
-5 9 -1 0
-2 4 -10 0
1 -8 9 0
9 -5 -11 0
-3 -11 -4 0
-4 -7 -3 0
11 7 2 0
-3 10 9 0
-10 -11 7 0
-1 -5 -8 0
